num_offers = 30;
num_halls = 10;
start=[29,52,24,34,17,74,72,28,41,86,20,56,5,36,51,53,20,49,73,24,80,39,16,43,8,29,30,42,12,21];
end=[92,68,73,42,25,94,73,72,58,91,89,81,67,68,80,92,61,72,89,90,85,64,31,64,70,41,66,99,13,60];
price=[2203,1060,1696,467,299,279,44,4331,1202,405,5147,2057,3767,2132,2027,1530,2979,1508,1473,3389,392,1361,1505,1692,5682,1108,3307,4141,161,2738];
requirement=[714,970,954,953,791,490,906,271,764,760,405,878,600,733,531,756,383,865,431,970,329,787,446,359,441,409,269,930,999,326];
capacity=[301,480,342,451,621,793,767,932,983,873];
